20J7M/DAT/20J7MNLL-9.dat
20 7
25.0734 25.0734
25.4974 25.4974
17.306 17.306
21.7378 21.7378
33.9632 33.9632
28.8535 28.8535
30.9637 30.9637
26.777 26.777
29.8201 29.8201
27.8236 27.8236
24.7919 24.7919
23.298 23.298
22.3644 22.3644
25.9775 25.9775
41.5426 41.5426
27.6473 27.6473
15.7532 15.7532
29.6765 29.6765
31.4748 31.4748
27.8728 27.8728
76.8878