20J7M/SOL/20J7MNLL-9.sol
solution status: optimal solution found
objective value:                              76.8878
x#1#6                                               1 	(obj:0)
x#2#5                               0.570489540109972 	(obj:0)
x#2#6                               0.429510459890028 	(obj:0)
x#3#5                                               1 	(obj:0)
x#4#5                                               1 	(obj:0)
x#5#7                                               1 	(obj:0)
x#6#2                                               1 	(obj:0)
x#7#1                               0.493707147401635 	(obj:0)
x#7#2                               0.506292852598365 	(obj:0)
x#8#3                                               1 	(obj:0)
x#9#2                                               1 	(obj:0)
x#10#3                                              1 	(obj:0)
x#11#4                                              1 	(obj:0)
x#12#5                                              1 	(obj:0)
x#13#4                                              1 	(obj:0)
x#14#1                                              1 	(obj:0)
x#15#7                              0.999997592832418 	(obj:0)
x#16#2                             0.0917811142498542 	(obj:0)
x#16#6                              0.908218885750146 	(obj:0)
x#17#6                                              1 	(obj:0)
x#18#1                              0.248994996040638 	(obj:0)
x#18#3                              0.751005003959362 	(obj:0)
x#19#1                             0.0114758473445416 	(obj:0)
x#19#4                              0.944612833123642 	(obj:0)
x#19#7                             0.0439113195318162 	(obj:0)
x#20#1                                              1 	(obj:0)
z                                             76.8878 	(obj:1)
